600462
20,64,23,80,9,66,10,35,73,51,75,60,43,46,40,100,17,95,70,24,8,29,92,37,82,86,27,28,63,84,4,39,5,68,90,55,6,13,56,26,88,42,1,33,53,98,48,2,74,65,87,49,76,12,61,45,72,104,32,71,36,67,7,50,58,93,99,41,16,59,89,34,21,22,79,14,83,31,97,44,78,25,47,62,19,15,91,54,102,18,103,3,52,69,96,94,38,85,101,105,11,77,81,57,106,30